
Gurobi 8.0.1 (win64, Java) logging started 09/27/18 15:58:59


Gurobi 8.0.1 (win64, Java) logging started 09/27/18 16:06:39


Gurobi 8.0.1 (win64, Java) logging started 09/27/18 16:07:17


Gurobi 8.0.1 (win64, Java) logging started 09/27/18 16:09:06


Gurobi 8.0.1 (win64, Java) logging started 09/27/18 16:32:46

Academic license - for non-commercial use only
Optimize a model with 2 rows, 3 columns and 5 nonzeros
Variable types: 0 continuous, 3 integer (3 binary)
Coefficient statistics:
  Matrix range     [1e+00, 3e+00]
  Objective range  [1e+00, 2e+00]
  Bounds range     [1e+00, 1e+00]
  RHS range        [1e+00, 4e+00]
Found heuristic solution: objective 2.0000000
Presolve removed 2 rows and 3 columns
Presolve time: 0.01s
Presolve: All rows and columns removed

Explored 0 nodes (0 simplex iterations) in 0.01 seconds
Thread count was 1 (of 4 available processors)

Solution count 2: 3 2 

Optimal solution found (tolerance 1.00e-04)
Best objective 3.000000000000e+00, best bound 3.000000000000e+00, gap 0.0000%
